Normalized Data/p02_29_normalized_split0.vrp
NAME:p02_29_NORMALIZED_split
BEST_KNOWN: 0
COMMENT: 0
DIMENSION: 286
CAPACITY: 100
EDGE_WEIGHT_FORMAT: FUNCTION
EDGE_WEIGHT_TYPE: EXACT_2D
NODE_COORD_SECTION
1 0.00000 0.00000
2 -9 -37
3 -9 -37
4 -9 -37
5 -9 -37
6 -9 -37
7 -18 -15
8 -18 -15
9 -32 4
10 -32 4
11 -32 4
12 -32 4
13 -30 47
14 -30 47
15 9 33
16 9 33
17 9 33
18 -44 9
19 -44 9
20 -44 9
21 -39 -24
22 -39 -24
23 -39 -24
24 -39 -24
25 8 -16
26 8 -16
27 8 -16
28 8 -16
29 46 11
30 46 11
31 46 11
32 46 11
33 46 11
34 46 11
35 -43 22
36 -43 22
37 37 -44
38 37 -44
39 -31 -35
40 -31 -35
41 -31 -35
42 -31 -35
43 -31 -35
44 -31 -35
45 -31 -35
46 43 -5
47 43 -5
48 43 -5
49 -48 -29
50 -48 -29
51 31 -5
52 31 -5
53 31 -5
54 31 -5
55 -12 -12
56 -12 -12
57 -12 -12
58 -12 -12
59 -12 -12
60 -40 -29
61 -40 -29
62 -40 -29
63 -40 -29
64 -40 -29
65 20 27
66 20 27
67 20 27
68 18 -41
69 18 -41
70 -24 -30
71 -24 -30
72 22 -14
73 22 -14
74 22 -14
75 22 -14
76 22 -14
77 22 -14
78 22 -14
79 -11 -38
80 -11 -38
81 -11 -38
82 -28 -47
83 -28 -47
84 8 -42
85 8 -42
86 8 -42
87 48 -33
88 48 -33
89 48 -33
90 -23 13
91 -23 13
92 -23 13
93 8 -38
94 8 -38
95 8 -38
96 8 -38
97 8 -38
98 12 -17
99 12 -17
100 12 -17
101 12 -17
102 12 -17
103 20 -31
104 20 -31
105 20 -31
106 20 -31
107 49 -30
108 49 -30
109 49 -30
110 49 -30
111 1 4
112 1 4
113 1 4
114 1 4
115 1 4
116 1 4
117 -33 46
118 -33 46
119 -33 46
120 -33 46
121 -38 30
122 -38 30
123 -38 30
124 50 -2
125 50 -2
126 50 -2
127 50 -2
128 5 18
129 5 18
130 5 18
131 30 -20
132 30 -20
133 3 -10
134 3 -10
135 3 -10
136 3 -10
137 3 -10
138 46 22
139 46 22
140 46 22
141 46 22
142 46 22
143 46 22
144 38 26
145 38 26
146 38 26
147 38 26
148 5 18
149 5 18
150 -16 -34
151 -16 -34
152 -16 -34
153 41 -40
154 41 -40
155 41 -40
156 41 -40
157 42 -50
158 42 -50
159 -11 -22
160 -11 -22
161 -11 -22
162 -11 -22
163 -11 -22
164 -38 16
165 -38 16
166 -38 16
167 -38 16
168 -38 49
169 -38 49
170 -38 49
171 -38 49
172 -38 49
173 -25 -35
174 -25 -35
175 -49 -10
176 36 -2
177 36 -2
178 36 -2
179 34 -37
180 34 -37
181 34 -37
182 -22 -12
183 -22 -12
184 -22 -12
185 -22 -12
186 -22 -12
187 -27 32
188 -27 32
189 -27 32
190 -27 32
191 -44 -6
192 -44 -6
193 -44 -6
194 -44 -6
195 -44 -6
196 -27 -1
197 -27 -1
198 15 -12
199 15 -12
200 15 -12
201 15 -12
202 15 -12
203 -31 22
204 -31 22
205 -31 22
206 -31 22
207 -31 22
208 -31 22
209 -12 11
210 -12 11
211 -12 11
212 -12 11
213 -12 11
214 34 37
215 34 37
216 34 37
217 34 37
218 34 37
219 34 37
220 34 -39
221 34 -39
222 34 -39
223 50 47
224 50 47
225 50 47
226 43 16
227 43 16
228 10 -25
229 10 -25
230 10 -25
231 -41 22
232 -41 22
233 -41 22
234 -41 22
235 -41 22
236 -41 22
237 -41 22
238 19 -40
239 19 -40
240 19 -40
241 19 -40
242 19 -40
243 -24 34
244 -24 34
245 -15 3
246 -15 3
247 -15 3
248 -15 3
249 23 39
250 23 39
251 23 39
252 23 39
253 42 -50
254 42 -50
255 15 -15
256 15 -15
257 15 -15
258 15 -15
259 15 -15
260 6 -7
261 6 -7
262 6 -7
263 6 -7
264 6 -7
265 45 19
266 45 19
267 45 19
268 45 19
269 45 19
270 -3 -48
271 -3 -48
272 -3 -48
273 -3 -48
274 22 -35
275 22 -35
276 22 -35
277 -25 -10
278 -25 -10
279 -25 -10
280 3 19
281 3 19
282 3 19
283 3 19
284 3 19
285 3 19
286 3 19
DEMAND_SECTION
1 0
2 20
3 20
4 5
5 1
6 1
7 20
8 10
9 10
10 1
11 1
12 1
13 20
14 20
15 20
16 1
17 1
18 20
19 10
20 1
21 20
22 20
23 5
24 1
25 20
26 20
27 1
28 1
29 20
30 20
31 1
32 1
33 1
34 1
35 10
36 5
37 20
38 5
39 20
40 20
41 5
42 1
43 1
44 1
45 1
46 10
47 1
48 1
49 20
50 10
51 20
52 5
53 1
54 1
55 20
56 1
57 1
58 1
59 1
60 10
61 1
62 1
63 1
64 1
65 20
66 20
67 10
68 10
69 5
70 20
71 5
72 20
73 20
74 5
75 1
76 1
77 1
78 1
79 10
80 1
81 1
82 20
83 1
84 20
85 10
86 5
87 10
88 1
89 1
90 20
91 20
92 10
93 20
94 20
95 5
96 1
97 1
98 20
99 5
100 1
101 1
102 1
103 10
104 5
105 1
106 1
107 10
108 1
109 1
110 1
111 10
112 5
113 1
114 1
115 1
116 1
117 20
118 5
119 1
120 1
121 20
122 20
123 5
124 20
125 5
126 1
127 1
128 20
129 20
130 5
131 20
132 5
133 20
134 20
135 1
136 1
137 1
138 20
139 5
140 1
141 1
142 1
143 1
144 10
145 5
146 1
147 1
148 10
149 5
150 20
151 10
152 5
153 10
154 5
155 1
156 1
157 20
158 10
159 10
160 5
161 1
162 1
163 1
164 20
165 5
166 1
167 1
168 10
169 5
170 1
171 1
172 1
173 20
174 10
175 20
176 20
177 10
178 5
179 20
180 5
181 1
182 20
183 1
184 1
185 1
186 1
187 20
188 10
189 1
190 1
191 20
192 10
193 5
194 1
195 1
196 20
197 5
198 10
199 1
200 1
201 1
202 1
203 20
204 10
205 5
206 1
207 1
208 1
209 20
210 20
211 5
212 1
213 1
214 20
215 10
216 1
217 1
218 1
219 1
220 20
221 10
222 5
223 20
224 10
225 1
226 20
227 10
228 20
229 1
230 1
231 20
232 20
233 5
234 1
235 1
236 1
237 1
238 20
239 20
240 5
241 1
242 1
243 20
244 20
245 20
246 20
247 1
248 1
249 10
250 5
251 1
252 1
253 20
254 20
255 10
256 1
257 1
258 1
259 1
260 20
261 1
262 1
263 1
264 1
265 20
266 20
267 5
268 1
269 1
270 20
271 10
272 1
273 1
274 10
275 1
276 1
277 20
278 1
279 1
280 20
281 20
282 5
283 1
284 1
285 1
286 1
DEPOT_SECTION
1
-1
EOF