Normalized Data/p02_29_normalized_split0.sol
285 -1 2 3 5 4 78 80 79 270 269 272 271 94 135 134 136 -8 11 10 19 18 17 174 193 191 192 190 194 -9 166 165 164 163 34 35 230 233 235 232 236 231 234 -13 12 118 116 117 119 168 169 167 170 171 187 189 188 -27 26 67 68 237 238 239 240 241 273 275 274 105 104 103 102 -36 37 157 156 253 252 221 -43 39 40 42 41 38 44 82 81 173 172 -50 52 51 177 175 176 131 130 198 199 197 201 200 -53 45 46 47 123 125 124 126 28 29 32 31 33 30 226 -55 57 54 70 69 151 150 149 158 160 159 162 161 -58 56 7 6 181 278 277 276 196 195 -59 62 63 60 61 49 48 23 20 21 22 184 185 183 182 -65 64 66 15 14 16 147 110 112 111 113 114 -76 72 71 75 77 73 74 255 258 256 257 254 97 101 100 99 98 260 261 263 262 -84 85 83 95 92 96 93 228 227 229 -89 90 186 243 242 -91 203 205 207 204 202 206 121 122 120 211 212 210 -109 107 108 106 86 88 87 155 153 154 152 219 220 179 178 180 -115 148 127 128 129 279 283 285 282 280 281 284 -132 133 25 24 259 -139 142 137 138 140 141 264 265 268 266 267 225 -144 143 145 146 223 224 222 217 216 213 214 215 218 250 248 251 249 -208 209 247 245 246 244 0 





OBJ=
2175.435
BEST_KNOWN=
0.000